caseWidth=10;
caseHeight=10;
caseCapacity=100;
n=20;
price=[68 24 31 25 48 1 80 78 62 33 57 41 78 12 91 51 88 17 56 93];
weight=[15 5 7 12 12 2 16 18 17 13 15 4 13 6 10 12 16 18 11 1];
side=[1 2 4 1 4 3 1 1 3 1 1 4 2 1 3 4 3 4 1 4];
